1116
0	52	145	215	338	377	448	584	674	684
0	105	193	291	448	513	523	674	717	756
11	145	189	215	317	504	578	717	749	755
0	18	76	138	184	217	223	364	415	495
18	96	143	172	188	281	338	497	584	623
39	189	240	392	578	645	660	731	805	825
240	316	476	536	645	669	687	770	825	923
181	263	456	549	565	669	762	792	913	979
237	346	415	497	762	824	865	956	1007	1041
96	143	184	204	223	317	377	611	642	738
